13 40
1 2 1
1 3 1
1 4 0
1 5 0
1 6 1
1 7 0
1 8 0
1 9 0
1 10 0
1 11 0
1 12 1
1 13 0
2 3 0
2 4 0
2 5 0
2 6 1
2 7 1
2 8 1
2 9 0
2 10 1
2 11 0
2 12 1
2 13 1
3 4 1
3 5 0
3 6 1
3 7 0
3 8 1
3 9 0
3 10 0
3 11 0
3 12 0
3 13 1
4 5 0
4 6 0
4 7 0
4 8 0
4 9 0
4 10 1
4 11 0
4 12 0
4 13 1
5 6 0
5 7 1
5 8 1
5 9 1
5 10 0
5 11 1
5 12 0
5 13 0
6 7 1
6 8 1
6 9 1
6 10 1
6 11 0
6 12 1
6 13 0
7 8 1
7 9 1
7 10 1
7 11 0
7 12 1
7 13 0
8 9 1
8 10 1
8 11 0
8 12 0
8 13 1
9 10 1
9 11 0
9 12 1
9 13 0
10 11 1
10 12 1
10 13 1
11 12 1
11 13 1
12 13 1
